language ESSENCE' 1.0

letting jobs = 102
letting horizon = 815
letting resourcesRenew = 2
letting resourcesNonrenew = 2
letting resourceLimits = [26, 27, 368, 416]
letting successors = [[2, 3, 4, 5, 6, 7, 8, 11, 12, 13], [23, 18, 17, 15, 14, 10, 9], [23, 22, 19, 17, 16, 15], [28, 23, 21, 14, 10], [28, 21, 20, 10], [30, 27, 26, 25, 24, 23, 22, 21, 20, 19], [30, 28, 27, 26, 25, 24, 22, 20, 19], [33, 28, 27, 23, 22, 21, 16], [28, 27, 22, 20, 19, 16], [33, 31, 27, 26, 22, 16], [28, 23, 22, 21, 14], [33, 31, 30, 29, 28, 26, 25, 24, 22], [33, 32, 28, 27, 26, 25, 24, 20], [43, 35, 32, 31, 30, 29, 27, 25], [37, 33, 32, 28, 25, 21], [35, 34, 32, 30, 29, 25, 24], [32, 28, 27, 25], [41, 38, 30, 22], [39, 38, 37, 36, 35, 34, 33, 32, 31], [44, 39, 38, 37, 36, 34, 31, 29], [48, 44, 43, 38, 36, 35, 34, 31], [48, 44, 43, 39, 37, 36, 34, 32], [48, 44, 43, 41, 37, 35, 34, 32], [53, 49, 48, 44, 43, 42, 41, 39, 36], [53, 49, 48, 44, 42, 40, 39, 36], [53, 49, 48, 44, 43, 42, 40, 37], [53, 48, 40, 38, 37, 34], [53, 45, 43, 39, 38, 35], [53, 52, 49, 48, 46, 45, 40], [53, 52, 49, 48, 45, 40], [53, 42, 41], [53, 52, 45, 40], [57, 55, 53, 51, 50, 48, 45], [50, 49, 47, 42], [49, 46, 40], [57, 55, 52, 51, 50, 45], [57, 55, 52, 51, 50, 45], [55, 47, 42], [52, 50, 47, 46], [61, 57, 55, 51, 50, 47], [57, 55, 50, 45], [71, 66, 52, 46], [65, 61, 59, 57, 56, 55, 50], [62, 61, 59, 54, 51, 50], [63, 61, 58, 56, 47], [65, 62, 61, 59, 58, 57, 54, 51], [73, 71, 68, 66, 65, 62, 59, 54], [66, 65, 62, 61, 59, 58, 54], [80, 72, 71, 69, 68, 66, 62, 61, 54], [76, 73, 72, 71, 70, 69, 66, 64, 58], [73, 69, 68, 64, 63, 60, 56], [92, 70, 68, 67, 63, 59], [92, 80, 76, 73, 72, 69, 68, 67, 64], [86, 76, 74, 70, 67, 64, 60], [92, 83, 72, 68, 64, 63], [92, 91, 86, 84, 80, 77, 76, 72, 70, 67], [70, 69, 67, 60], [86, 80, 67, 60], [91, 87, 83, 80, 77, 75, 72, 69], [92, 91, 87, 84, 83, 82, 81, 78, 77, 75], [91, 90, 89, 87, 86, 83, 82, 78, 75], [91, 87, 86, 85, 82, 81, 78, 76], [86, 84, 82, 81, 80, 78, 76], [91, 87, 84, 81, 77, 75], [88, 86, 84, 82, 80, 74], [92, 91, 89, 88, 85, 82, 81, 78], [88, 87, 85, 83, 82, 81, 78], [91, 90, 89, 82, 78, 75], [101, 90, 89, 88, 86, 82, 78], [90, 89, 75], [101, 96, 88, 83, 82, 81], [101, 89, 88, 78], [101, 98, 97, 96, 89, 81], [101, 91, 90, 89, 79], [88, 85, 79], [101, 100, 98, 97, 96, 95, 93, 89], [99, 98, 96, 95, 94, 85], [100, 79], [99, 98, 97, 96, 95, 94, 93], [99, 96, 94, 85], [100, 99, 95, 94, 90], [98, 95, 94, 93], [97, 95, 94, 93], [96, 93, 89], [101, 100, 93], [98, 94, 93], [99, 97, 93], [97, 95], [94], [93], [93], [93], [102], [102], [102], [102], [102], [102], [102], [102], [102], []]
letting durations = [[0], [5, 6, 7], [3, 7, 9], [1, 9, 9], [7, 9, 9], [7, 8, 9], [3, 4, 8], [2, 4, 5], [1, 2, 7], [1, 6, 10], [1, 5, 5], [4, 8, 10], [1, 6, 8], [2, 2, 9], [6, 7, 8], [1, 3, 4], [4, 5, 6], [4, 4, 10], [3, 4, 5], [7, 7, 8], [2, 4, 9], [3, 5, 8], [5, 6, 8], [5, 9, 10], [2, 2, 7], [1, 2, 8], [3, 6, 7], [1, 4, 9], [2, 2, 9], [3, 4, 10], [4, 5, 9], [2, 5, 7], [1, 2, 3], [4, 4, 10], [8, 9, 10], [2, 6, 9], [2, 9, 10], [1, 7, 10], [3, 6, 7], [3, 8, 9], [4, 6, 8], [1, 6, 9], [1, 1, 3], [1, 8, 9], [3, 8, 9], [5, 9, 10], [5, 8, 10], [4, 4, 7], [1, 7, 8], [3, 9, 10], [3, 6, 7], [1, 7, 10], [6, 6, 9], [3, 7, 7], [2, 5, 6], [7, 8, 10], [1, 7, 9], [8, 9, 10], [2, 4, 7], [3, 3, 7], [4, 5, 9], [5, 8, 10], [2, 5, 10], [3, 8, 9], [4, 5, 10], [1, 2, 7], [3, 5, 5], [1, 5, 7], [1, 1, 5], [2, 3, 6], [2, 4, 5], [7, 8, 9], [3, 3, 4], [1, 4, 10], [4, 6, 7], [2, 5, 8], [1, 8, 10], [2, 6, 10], [1, 2, 9], [4, 7, 9], [2, 6, 9], [5, 7, 10], [3, 7, 8], [3, 7, 9], [2, 4, 6], [4, 5, 9], [1, 2, 10], [7, 8, 10], [3, 6, 6], [6, 8, 8], [7, 8, 9], [5, 7, 10], [1, 8, 8], [1, 5, 6], [3, 5, 6], [6, 8, 9], [5, 6, 8], [4, 5, 9], [2, 4, 6], [7, 9, 10], [1, 7, 10], [0]]
letting resourceUsage = [[[0, 0, 0, 0]], [[0, 3, 8, 0], [2, 0, 0, 2], [2, 0, 0, 1]], [[5, 0, 6, 0], [0, 3, 0, 4], [3, 0, 0, 4]], [[0, 5, 2, 0], [0, 5, 1, 0], [0, 5, 0, 4]], [[0, 4, 0, 5], [0, 4, 0, 3], [2, 0, 2, 0]], [[0, 4, 0, 2], [0, 4, 6, 0], [0, 3, 0, 2]], [[3, 0, 0, 7], [3, 0, 0, 6], [0, 3, 0, 3]], [[4, 0, 0, 8], [0, 3, 6, 0], [0, 1, 6, 0]], [[0, 3, 0, 4], [0, 2, 0, 3], [2, 0, 0, 2]], [[0, 2, 9, 0], [0, 1, 0, 8], [3, 0, 0, 8]], [[5, 0, 8, 0], [0, 3, 3, 0], [0, 3, 0, 3]], [[0, 3, 0, 3], [0, 3, 0, 2], [2, 0, 0, 2]], [[4, 0, 0, 1], [0, 4, 8, 0], [0, 3, 0, 1]], [[3, 0, 10, 0], [0, 2, 0, 9], [2, 0, 0, 8]], [[2, 0, 0, 8], [1, 0, 0, 7], [0, 1, 4, 0]], [[3, 0, 0, 7], [2, 0, 0, 4], [0, 3, 4, 0]], [[5, 0, 0, 6], [0, 2, 0, 6], [0, 2, 0, 5]], [[3, 0, 0, 8], [0, 2, 9, 0], [2, 0, 8, 0]], [[0, 4, 0, 9], [0, 3, 0, 8], [3, 0, 0, 8]], [[3, 0, 9, 0], [2, 0, 0, 5], [2, 0, 7, 0]], [[0, 4, 5, 0], [0, 4, 2, 0], [3, 0, 0, 1]], [[3, 0, 0, 9], [3, 0, 7, 0], [0, 4, 3, 0]], [[2, 0, 10, 0], [1, 0, 8, 0], [0, 1, 0, 7]], [[0, 4, 0, 3], [3, 0, 8, 0], [0, 4, 0, 1]], [[0, 5, 0, 5], [0, 2, 4, 0], [3, 0, 0, 1]], [[4, 0, 0, 7], [0, 1, 9, 0], [0, 1, 0, 2]], [[0, 3, 0, 5], [2, 0, 7, 0], [2, 0, 6, 0]], [[3, 0, 0, 8], [2, 0, 1, 0], [0, 1, 0, 4]], [[0, 4, 10, 0], [3, 0, 10, 0], [3, 0, 9, 0]], [[0, 4, 0, 3], [0, 3, 0, 3], [0, 1, 0, 2]], [[0, 4, 10, 0], [0, 2, 8, 0], [0, 1, 0, 4]], [[0, 4, 0, 8], [3, 0, 0, 4], [0, 1, 0, 2]], [[1, 0, 7, 0], [0, 1, 0, 1], [1, 0, 0, 1]], [[0, 2, 0, 8], [2, 0, 0, 4], [1, 0, 0, 3]], [[0, 4, 0, 2], [1, 0, 8, 0], [0, 4, 0, 1]], [[5, 0, 0, 7], [0, 2, 4, 0], [0, 2, 0, 2]], [[4, 0, 0, 6], [4, 0, 0, 5], [0, 2, 3, 0]], [[0, 4, 0, 9], [0, 4, 0, 7], [0, 4, 0, 6]], [[0, 5, 8, 0], [2, 0, 0, 4], [0, 5, 0, 2]], [[0, 4, 0, 9], [2, 0, 0, 9], [2, 0, 0, 8]], [[4, 0, 6, 0], [4, 0, 0, 7], [0, 1, 0, 7]], [[0, 5, 7, 0], [2, 0, 6, 0], [1, 0, 2, 0]], [[3, 0, 0, 9], [3, 0, 2, 0], [2, 0, 0, 6]], [[0, 4, 0, 6], [2, 0, 3, 0], [2, 0, 0, 6]], [[5, 0, 10, 0], [5, 0, 0, 5], [5, 0, 9, 0]], [[4, 0, 3, 0], [0, 1, 2, 0], [3, 0, 0, 4]], [[0, 4, 4, 0], [2, 0, 3, 0], [0, 2, 3, 0]], [[4, 0, 10, 0], [4, 0, 0, 3], [0, 4, 8, 0]], [[0, 4, 0, 5], [0, 3, 0, 4], [1, 0, 0, 4]], [[0, 3, 3, 0], [4, 0, 0, 4], [2, 0, 0, 3]], [[0, 5, 9, 0], [0, 4, 7, 0], [0, 4, 0, 4]], [[3, 0, 7, 0], [1, 0, 7, 0], [1, 0, 0, 2]], [[0, 3, 0, 3], [5, 0, 6, 0], [0, 2, 0, 2]], [[3, 0, 7, 0], [3, 0, 5, 0], [0, 1, 4, 0]], [[4, 0, 0, 5], [4, 0, 0, 4], [4, 0, 0, 3]], [[5, 0, 8, 0], [4, 0, 0, 3], [3, 0, 5, 0]], [[0, 2, 9, 0], [1, 0, 0, 5], [0, 1, 0, 3]], [[4, 0, 6, 0], [4, 0, 0, 5], [0, 2, 0, 5]], [[5, 0, 0, 5], [4, 0, 5, 0], [4, 0, 0, 3]], [[5, 0, 0, 4], [0, 4, 0, 4], [3, 0, 0, 2]], [[0, 3, 0, 4], [3, 0, 0, 4], [0, 2, 0, 3]], [[3, 0, 10, 0], [0, 3, 0, 8], [2, 0, 8, 0]], [[2, 0, 0, 8], [2, 0, 6, 0], [0, 2, 4, 0]], [[2, 0, 7, 0], [2, 0, 6, 0], [2, 0, 4, 0]], [[3, 0, 0, 9], [1, 0, 0, 5], [1, 0, 3, 0]], [[0, 3, 0, 7], [0, 3, 0, 6], [0, 3, 0, 5]], [[2, 0, 0, 8], [1, 0, 3, 0], [1, 0, 0, 4]], [[0, 5, 4, 0], [3, 0, 0, 8], [0, 4, 2, 0]], [[2, 0, 0, 9], [0, 2, 0, 8], [2, 0, 6, 0]], [[0, 1, 7, 0], [0, 1, 6, 0], [2, 0, 0, 7]], [[1, 0, 5, 0], [0, 1, 0, 6], [0, 1, 0, 5]], [[5, 0, 0, 7], [4, 0, 0, 7], [0, 2, 0, 7]], [[0, 4, 0, 4], [2, 0, 4, 0], [1, 0, 0, 2]], [[5, 0, 0, 10], [0, 1, 0, 7], [0, 1, 2, 0]], [[0, 2, 5, 0], [2, 0, 0, 4], [0, 2, 0, 3]], [[0, 5, 7, 0], [4, 0, 0, 6], [0, 5, 4, 0]], [[5, 0, 0, 6], [4, 0, 0, 6], [4, 0, 3, 0]], [[0, 2, 8, 0], [2, 0, 7, 0], [0, 1, 4, 0]], [[4, 0, 5, 0], [0, 4, 0, 3], [4, 0, 4, 0]], [[2, 0, 0, 6], [1, 0, 6, 0], [0, 1, 6, 0]], [[2, 0, 0, 10], [2, 0, 0, 5], [0, 1, 3, 0]], [[0, 5, 0, 4], [0, 4, 0, 4], [0, 3, 3, 0]], [[0, 4, 2, 0], [0, 4, 1, 0], [0, 4, 0, 2]], [[5, 0, 5, 0], [4, 0, 0, 9], [3, 0, 0, 8]], [[1, 0, 0, 5], [0, 3, 7, 0], [0, 3, 0, 1]], [[5, 0, 0, 5], [2, 0, 0, 4], [2, 0, 0, 1]], [[5, 0, 4, 0], [0, 1, 0, 9], [0, 1, 2, 0]], [[0, 2, 0, 7], [0, 1, 0, 5], [0, 1, 4, 0]], [[2, 0, 8, 0], [2, 0, 7, 0], [2, 0, 0, 3]], [[0, 4, 0, 2], [0, 2, 0, 2], [0, 1, 7, 0]], [[0, 3, 0, 9], [1, 0, 3, 0], [1, 0, 2, 0]], [[4, 0, 0, 8], [3, 0, 2, 0], [2, 0, 0, 5]], [[2, 0, 0, 2], [2, 0, 6, 0], [2, 0, 0, 1]], [[0, 4, 5, 0], [0, 3, 3, 0], [2, 0, 2, 0]], [[2, 0, 0, 9], [2, 0, 6, 0], [0, 1, 0, 8]], [[3, 0, 5, 0], [3, 0, 4, 0], [0, 1, 0, 5]], [[0, 4, 8, 0], [0, 3, 0, 7], [2, 0, 7, 0]], [[5, 0, 9, 0], [0, 3, 0, 3], [3, 0, 6, 0]], [[0, 1, 0, 9], [0, 1, 0, 5], [0, 1, 0, 4]], [[5, 0, 6, 0], [4, 0, 6, 0], [0, 2, 0, 8]], [[4, 0, 0, 7], [0, 4, 0, 4], [2, 0, 0, 4]], [[0, 0, 0, 0]]]
